(set-logic BV) (define-fun origCir ((n162 Bool) (n325 Bool) (n254 Bool) (n207 Bool) (i43 Bool)) Bool (xor (and (xor n325 (not (and n254 n207))) n162) i43)) (synth-fun skel ((n162 Bool) (n325 Bool) (n254 Bool) (n207 Bool) (i43 Bool)) Bool) (declare-var n162 Bool) (declare-var n325 Bool) (declare-var n254 Bool) (declare-var n207 Bool) (declare-var i43 Bool) (constraint (= (origCir n162 n325 n254 n207 i43) (skel n162 n325 n254 n207 i43))) (check-synth)
